n_machines = 3;
n_resources = 5;
n_jobs = 45;
horizon = 225;
LB = 77;
n_jobs_per_resource = [10, 7, 15, 2, 11];
duration = [4, 3, 1, 2, 1, 9, 8, 1, 8, 4, 3, 5, 8, 9, 3, 8, 4, 9, 7, 1, 8, 3, 3, 3, 5, 7, 1, 7, 5, 2, 8, 8, 3, 3, 6, 1, 9, 9, 3, 3, 6, 7, 4, 8, 5]